
Gurobi 9.0.1 (linux64) logging started Thu Apr 30 18:22:22 2020

Gurobi Optimizer version 9.0.1 build v9.0.1rc0 (linux64)
Optimize a model with 13307 rows, 12060 columns and 202950 nonzeros
Model fingerprint: 0x1625f2bb
Variable types: 0 continuous, 12060 integer (12032 binary)
Coefficient statistics:
  Matrix range     [1e+00, 1e+01]
  Objective range  [1e+00, 1e+02]
  Bounds range     [1e+00, 1e+00]
  RHS range        [1e+00, 1e+00]

User MIP start produced solution with objective 909 (0.26s)
Loaded user MIP start with objective 909

Presolve removed 5054 rows and 3900 columns
Presolve time: 3.06s
Presolved: 8253 rows, 8160 columns, 165405 nonzeros
Variable types: 0 continuous, 8160 integer (8134 binary)

Root simplex log...

Iteration    Objective       Primal Inf.    Dual Inf.      Time
    2372    5.3261792e+02   5.632629e+03   0.000000e+00      5s
    5852    5.4639744e+02   1.763151e+03   0.000000e+00     10s
    9175    5.4935620e+02   2.939305e+03   0.000000e+00     15s
   11683    5.5104527e+02   3.217218e+02   0.000000e+00     20s
   13991    5.5178031e+02   1.367037e+02   0.000000e+00     25s
   16043    5.5230597e+02   0.000000e+00   0.000000e+00     30s

Root relaxation: objective 5.523060e+02, 16043 iterations, 26.43 seconds
Total elapsed time = 30.10s

    Nodes    |    Current Node    |     Objective Bounds      |     Work
 Expl Unexpl |  Obj  Depth IntInf | Incumbent    BestBd   Gap | It/Node Time

     0     0  552.30597    0 1306  909.00000  552.30597  39.2%     -   31s
     0     0  581.98748    0 1467  909.00000  581.98748  36.0%     -   65s
     0     0  582.83247    0 1454  909.00000  582.83247  35.9%     -   75s
     0     0  582.85259    0 1436  909.00000  582.85259  35.9%     -   76s
     0     0  582.85305    0 1429  909.00000  582.85305  35.9%     -   77s
     0     0  588.54980    0 1435  909.00000  588.54980  35.3%     -  101s
     0     0  588.65637    0 1446  909.00000  588.65637  35.2%     -  106s
     0     0  588.65754    0 1444  909.00000  588.65754  35.2%     -  107s
     0     0  594.41139    0 1463  909.00000  594.41139  34.6%     -  151s
     0     0  594.79936    0 1447  909.00000  594.79936  34.6%     -  162s
     0     0  594.85998    0 1420  909.00000  594.85998  34.6%     -  166s
     0     0  594.86882    0 1389  909.00000  594.86882  34.6%     -  167s
     0     0  597.50204    0 1521  909.00000  597.50204  34.3%     -  200s
     0     0  598.00471    0 1508  909.00000  598.00471  34.2%     -  212s
     0     0  598.03132    0 1529  909.00000  598.03132  34.2%     -  215s
     0     0  598.04121    0 1540  909.00000  598.04121  34.2%     -  217s
     0     0  599.30789    0 1489  909.00000  599.30789  34.1%     -  240s
     0     0  599.43615    0 1482  909.00000  599.43615  34.1%     -  248s
     0     0  599.45032    0 1472  909.00000  599.45032  34.1%     -  251s
     0     0  600.97620    0 1556  909.00000  600.97620  33.9%     -  282s
     0     0  601.47216    0 1530  909.00000  601.47216  33.8%     -  298s
     0     0  601.50849    0 1552  909.00000  601.50849  33.8%     -  304s
     0     0  601.51697    0 1539  909.00000  601.51697  33.8%     -  306s
     0     0  602.21145    0 1557  909.00000  602.21145  33.8%     -  327s
     0     0  602.28095    0 1556  909.00000  602.28095  33.7%     -  337s
     0     0  602.33304    0 1539  909.00000  602.33304  33.7%     -  344s
     0     0  602.33641    0 1583  909.00000  602.33641  33.7%     -  346s
     0     0  604.14180    0 1577  909.00000  604.14180  33.5%     -  379s
     0     0  604.37018    0 1561  909.00000  604.37018  33.5%     -  392s
     0     0  604.38749    0 1554  909.00000  604.38749  33.5%     -  395s
     0     0  605.04180    0 1541  909.00000  605.04180  33.4%     -  413s
     0     0  605.08088    0 1552  909.00000  605.08088  33.4%     -  422s
     0     0  605.08911    0 1531  909.00000  605.08911  33.4%     -  424s
     0     0  605.97419    0 1544  909.00000  605.97419  33.3%     -  446s
     0     0  606.11053    0 1579  909.00000  606.11053  33.3%     -  460s
     0     0  606.13135    0 1581  909.00000  606.13135  33.3%     -  463s
     0     0  606.13700    0 1589  909.00000  606.13700  33.3%     -  465s
     0     0  607.12340    0 1546  909.00000  607.12340  33.2%     -  486s
     0     0  607.23416    0 1561  909.00000  607.23416  33.2%     -  493s
     0     0  607.26010    0 1584  909.00000  607.26010  33.2%     -  498s
     0     0  607.26331    0 1580  909.00000  607.26331  33.2%     -  500s
     0     0  607.65492    0 1594  909.00000  607.65492  33.2%     -  517s
     0     0  607.68903    0 1608  909.00000  607.68903  33.1%     -  523s
     0     0  607.69644    0 1585  909.00000  607.69644  33.1%     -  525s
     0     0  608.59838    0 1550  909.00000  608.59838  33.0%     -  546s
     0     0  608.73535    0 1578  909.00000  608.73535  33.0%     -  563s
     0     0  608.76408    0 1627  909.00000  608.76408  33.0%     -  569s
     0     0  608.77105    0 1618  909.00000  608.77105  33.0%     -  571s
     0     0  609.50248    0 1584  909.00000  609.50248  32.9%     -  594s
     0     0  609.56741    0 1572  909.00000  609.56741  32.9%     -  603s
     0     0  609.58668    0 1594  909.00000  609.58668  32.9%     -  609s
     0     0  610.29878    0 1591  909.00000  610.29878  32.9%     -  634s
     0     0  610.41345    0 1606  909.00000  610.41345  32.8%     -  647s
     0     0  610.45443    0 1598  909.00000  610.45443  32.8%     -  654s
     0     0  610.45825    0 1585  909.00000  610.45825  32.8%     -  656s
     0     0  610.90278    0 1592  909.00000  610.90278  32.8%     -  671s
     0     0  610.96275    0 1630  909.00000  610.96275  32.8%     -  679s
     0     0  610.97110    0 1626  909.00000  610.97110  32.8%     -  682s
     0     0  611.29277    0 1549  909.00000  611.29277  32.8%     -  698s
     0     0  611.33795    0 1560  909.00000  611.33795  32.7%     -  706s
     0     0  611.34429    0 1582  909.00000  611.34429  32.7%     -  709s
     0     0  611.67075    0 1596  909.00000  611.67075  32.7%     -  724s
     0     0  611.71561    0 1628  909.00000  611.71561  32.7%     -  732s
     0     0  611.72151    0 1625  909.00000  611.72151  32.7%     -  735s
     0     0  611.92141    0 1621  909.00000  611.92141  32.7%     -  750s
     0     0  611.92141    0 1605  909.00000  611.92141  32.7%     -  756s
     0     0  611.92503    0 1374  909.00000  611.92503  32.7%     -  793s
     0     0  611.92503    0 1427  909.00000  611.92503  32.7%     -  824s
     0     0  611.92503    0 1530  909.00000  611.92503  32.7%     -  872s
     0     0  611.92503    0 1572  909.00000  611.92503  32.7%     -  907s
     0     0  612.06264    0 1559  909.00000  612.06264  32.7%     -  919s
     0     0  612.10432    0 1568  909.00000  612.10432  32.7%     -  925s
     0     0  612.10685    0 1559  909.00000  612.10685  32.7%     -  926s
     0     0  612.28010    0 1542  909.00000  612.28010  32.6%     -  944s
     0     0  612.28580    0 1544  909.00000  612.28580  32.6%     -  947s
     0     0  612.82831    0 1575  909.00000  612.82831  32.6%     -  973s
     0     0  613.03511    0 1616  909.00000  613.03511  32.6%     -  988s
     0     0  613.04780    0 1608  909.00000  613.04780  32.6%     -  990s
     0     0  613.49527    0 1559  909.00000  613.49527  32.5%     - 1026s
     0     0  613.65084    0 1572  909.00000  613.65084  32.5%     - 1038s
     0     0  613.66954    0 1577  909.00000  613.66954  32.5%     - 1042s
     0     0  613.83966    0 1611  909.00000  613.83966  32.5%     - 1054s
     0     0  613.84817    0 1591  909.00000  613.84817  32.5%     - 1057s
     0     0  613.92804    0 1601  909.00000  613.92804  32.5%     - 1066s
     0     0  613.92804    0 1601  909.00000  613.92804  32.5%     - 1070s
     0     2  613.93125    0 1601  909.00000  613.93125  32.5%     - 1104s
     1     4  614.57888    1 1533  909.00000  613.93125  32.5% 10922 1139s
     2     5  615.63007    1 1461  909.00000  614.58400  32.4% 10400 1173s
     3     5  616.50418    2 1468  909.00000  614.58918  32.4% 10926 1209s
     4     6  617.86088    2 1420  909.00000  615.63110  32.3% 15422 1301s
     5     7  617.80569    3 1489  909.00000  615.63110  32.3% 14958 1343s
     6     8  632.09608    3 1406  909.00000  615.63110  32.3% 15490 1399s
     7     9  619.18673    4 1463  909.00000  615.63110  32.3% 15031 1437s
     8    10  629.26212    4 1422  909.00000  615.63110  32.3% 16021 1504s
     9    11  619.66902    5 1496  909.00000  615.63110  32.3% 14665 1514s
    10    12  620.04198    6 1492  909.00000  615.63110  32.3% 13977 1532s
    11    13  623.59416    7 1397  909.00000  615.63110  32.3% 14027 1577s
    12    14  638.08918    7 1362  909.00000  615.63110  32.3% 14662 1628s
    13    15  623.83349    8 1375  909.00000  615.63110  32.3% 13785 1636s
    14    16  636.87158    8 1287  909.00000  615.63110  32.3% 14307 1684s
    15    17  623.90992    9 1390  909.00000  615.63110  32.3% 13481 1689s
    16    18  624.30059   10 1408  909.00000  615.63110  32.3% 12902 1699s
    17    19  660.88913   11 1367  909.00000  615.63110  32.3% 13528 1746s
    18    20  624.47823   11 1340  909.00000  615.63110  32.3% 12978 1756s
    19    21  625.41475   12 1416  909.00000  615.63110  32.3% 12728 1776s
    20    22  648.27946   12 1352  909.00000  615.63110  32.3% 13656 1865s
    21    23  625.54795   13 1420  909.00000  615.63110  32.3% 13110 1870s
    22    24  662.53428   13 1344  909.00000  615.63110  32.3% 13494 1921s
    23    25  626.17751   14 1377  909.00000  615.63110  32.3% 13069 1932s
    24    26  626.88188   15 1386  909.00000  615.63110  32.3% 12631 1940s
    25    27  648.05919   15 1302  909.00000  615.63110  32.3% 13651 2048s
    26    28  626.95277   16 1366  909.00000  615.63110  32.3% 13203 2052s
    27    29  629.64382   17 1423  909.00000  615.63110  32.3% 13179 2087s
    28    30  636.78201   17 1377  909.00000  615.63110  32.3% 13314 2122s
    29    31  630.28760   18 1401  909.00000  615.63110  32.3% 13062 2139s
    30    32  668.12254   19 1315  909.00000  615.63110  32.3% 13643 2216s
    31    33  630.47459   19 1438  909.00000  615.63110  32.3% 13315 2222s
    32    34  669.56951   20 1347  909.00000  615.63110  32.3% 13612 2298s
    33    35  630.56315   20 1409  909.00000  615.63110  32.3% 13277 2306s
    34    36  662.53082   21 1192  909.00000  615.63110  32.3% 13656 2372s
    35    37  631.16080   21 1453  909.00000  615.63110  32.3% 13408 2383s
    36    38  670.63745   22 1316  909.00000  615.63110  32.3% 13646 2428s
    37    39  631.63564   22 1405  909.00000  615.63110  32.3% 13357 2436s
    38    40  663.52506   23 1194  909.00000  615.63110  32.3% 13533 2485s
    39    41  632.58754   23 1414  909.00000  615.63110  32.3% 13334 2497s
    40    42  633.63488   24 1391  909.00000  615.63110  32.3% 13160 2514s
    41    43  682.53135   24 1247  909.00000  615.63110  32.3% 13277 2550s
    42    44  634.08636   25 1379  909.00000  615.63110  32.3% 13065 2561s
    43    45  678.31438   25 1283  909.00000  615.63110  32.3% 14393 2745s
    44    46  635.71624   26 1400  909.00000  615.63110  32.3% 14246 2761s
    45    47  668.73062   27 1328  909.00000  615.63110  32.3% 14366 2805s
    46    48  636.50170   27 1376  909.00000  615.63110  32.3% 14153 2815s
    47    49  664.98379   28 1246  909.00000  615.63110  32.3% 14229 2852s
    48    50  636.56261   28 1362  909.00000  615.63110  32.3% 13969 2856s
    49    51  666.02707   29 1350  909.00000  615.63110  32.3% 14201 2908s
    50    52  637.31152   29 1381  909.00000  615.63110  32.3% 14005 2919s
    51    53  637.72737   30 1362  909.00000  615.63110  32.3% 13786 2927s
    52    54  667.42328   30 1329  909.00000  615.63110  32.3% 14287 3030s
    53    55  639.19217   31 1406  909.00000  615.63110  32.3% 14198 3049s
    54    56  664.43979   31 1335  909.00000  615.63110  32.3% 14339 3098s
    55    57  639.53233   32 1385  909.00000  615.63110  32.3% 14152 3109s
    56    58  674.38440   32 1234  909.00000  615.63110  32.3% 14390 3203s
    57    59  639.95876   33 1391  909.00000  615.63110  32.3% 14200 3210s
    58    60  669.41873   33 1312  909.00000  615.63110  32.3% 14318 3251s
    59    61  675.48728   34 1230  909.00000  615.63110  32.3% 14408 3303s
    60    62  641.49217   34 1394  909.00000  615.63110  32.3% 14268 3316s
    61    63  674.89143   35 1263  909.00000  615.63110  32.3% 14299 3348s
    62    64  642.44544   35 1359  909.00000  615.63110  32.3% 14144 3361s
    63    65  647.48443   36 1323  909.00000  615.63110  32.3% 14081 3387s
    64    66  651.96039   36 1387  909.00000  615.63110  32.3% 14096 3429s
    65    67  648.26213   37 1314  909.00000  615.63110  32.3% 13935 3435s
    66    68  649.54140   38 1268  909.00000  615.63110  32.3% 13792 3444s
    67    69  670.18519   39 1339  909.00000  615.63110  32.3% 13832 3472s
    68    70  653.50361   39 1330  909.00000  615.63110  32.3% 13732 3488s
    69    71  653.80074   40 1306  909.00000  615.63110  32.3% 13569 3494s
    70    72  654.31780   41 1318  909.00000  615.63110  32.3% 13423 3501s
    71    73  654.57169   42 1302  909.00000  615.63110  32.3% 13256 3505s
    72    74  655.37151   43 1318  909.00000  615.63110  32.3% 13110 3512s
    73    75  664.96862   44 1247  909.00000  615.63110  32.3% 13122 3544s
    74    76  663.94785   44 1313  909.00000  615.63110  32.3% 13059 3560s
    75    77  681.60787   45 1328  909.00000  615.63110  32.3% 12980 3577s
    76    78  675.01068   45 1271  909.00000  615.63110  32.3% 12955 3598s

Cutting planes:
  Gomory: 4
  Cover: 1
  MIR: 120
  StrongCG: 3
  Zero half: 45
  RLT: 685

Explored 77 nodes (1301908 simplex iterations) in 3600.01 seconds
Thread count was 1 (of 40 available processors)

Solution count 1: 909 

Time limit reached
Best objective 9.090000000000e+02, best bound 6.160000000000e+02, gap 32.2332%

User-callback calls 45316, time in user-callback 0.08 sec
